Annas-Mac.fritz.box
15:05  up 18:33, 2 users, load averages: 1.75 2.13 2.18
Ipopt 3.12.13: outlev=5
max_cpu_time=10800

==> Warning: Treating 72 binary and 0 integer variables as continous.


******************************************************************************
This program contains Ipopt, a library for large-scale nonlinear optimization.
 Ipopt is released as open source code under the Eclipse Public License (EPL).
         For more information visit http://projects.coin-or.org/Ipopt
******************************************************************************

This is Ipopt version 3.12.13, running with linear solver mumps.
NOTE: Other linear solvers might be more efficient (see Ipopt documentation).

Number of nonzeros in equality constraint Jacobian...:    12215
Number of nonzeros in inequality constraint Jacobian.:      288
Number of nonzeros in Lagrangian Hessian.............:      912

Total number of variables............................:      984
                     variables with only lower bounds:        0
                variables with lower and upper bounds:       72
                     variables with only upper bounds:        0
Total number of equality constraints.................:      848
Total number of inequality constraints...............:      144
        inequality constraints with only lower bounds:        0
   inequality constraints with lower and upper bounds:        0
        inequality constraints with only upper bounds:      144

iter    objective    inf_pr   inf_du lg(mu)  ||d||  lg(rg) alpha_du alpha_pr  ls
   0  3.1250000e+03 1.60e+02 2.22e-16  -1.0 0.00e+00    -  0.00e+00 0.00e+00   0
   1  5.0857270e+03 5.68e-14 1.29e+01  -1.0 7.32e+01    -  7.10e-02 1.00e+00h  1
   2  5.0854888e+03 5.68e-14 1.00e-06  -1.0 9.63e-01    -  1.00e+00 1.00e+00f  1
   3  5.0854888e+03 8.53e-14 2.83e-08  -2.5 7.25e-03    -  1.00e+00 1.00e+00h  1
   4  5.0854888e+03 1.14e-13 1.50e-09  -3.8 1.34e-02    -  1.00e+00 1.00e+00h  1
   5  5.0854888e+03 2.84e-14 1.84e-11  -5.7 2.93e-03    -  1.00e+00 1.00e+00h  1
   6  5.0854888e+03 7.11e-14 2.51e-14  -8.6 3.20e-04    -  1.00e+00 1.00e+00h  1

Number of Iterations....: 6

                                   (scaled)                 (unscaled)
Objective...............:   5.0854887669743175e+03    5.0854887669743175e+03
Dual infeasibility......:   2.5059035587193448e-14    1.5543122344752192e-15
Constraint violation....:   7.1054273576010019e-14    7.1054273576010019e-14
Complementarity.........:   2.5492752532261453e-09    2.5492752532261453e-09
Overall NLP error.......:   2.5492752532261453e-09    2.5492752532261453e-09


Number of objective function evaluations             = 7
Number of objective gradient evaluations             = 7
Number of equality constraint evaluations            = 7
Number of inequality constraint evaluations          = 7
Number of equality constraint Jacobian evaluations   = 7
Number of inequality constraint Jacobian evaluations = 7
Number of Lagrangian Hessian evaluations             = 6
Total CPU secs in IPOPT (w/o function evaluations)   =      0.137
Total CPU secs in NLP function evaluations           =      0.003

EXIT: Optimal Solution Found.
 
Ipopt 3.12.13: Optimal Solution Found

suffix ipopt_zU_out OUT;
suffix ipopt_zL_out OUT;
_solve_elapsed_time = 0.191802

>>> Save Controls ..
>>> Done.
>>> Paste commands below in Matlab or Octave
    ========================================


% Matlab output of states, u(t,x,y)
u{1} = [ ...    % states u(k,x,y)
  0  0  0  0  0  0  0  0  0  0  0  0  0  0  0  0  0 ;
  0  14.6447  27.0598  35.3553  38.2683  35.3553  27.0598  14.6447  4.68652E-15  -14.6447  -27.0598  -35.3553  -38.2683  -35.3553  -27.0598  -14.6447  -9.37304E-15 ;
  0  27.0598  50  65.3281  70.7107  65.3281  50  27.0598  8.65956E-15  -27.0598  -50  -65.3281  -70.7107  -65.3281  -50  -27.0598  -1.73191E-14 ;
  0  35.3553  65.3281  85.3553  92.388  85.3553  65.3281  35.3553  1.13143E-14  -35.3553  -65.3281  -85.3553  -92.388  -85.3553  -65.3281  -35.3553  -2.26285E-14 ;
  0  38.2683  70.7107  92.388  100  92.388  70.7107  38.2683  1.22465E-14  -38.2683  -70.7107  -92.388  -100  -92.388  -70.7107  -38.2683  -2.44929E-14 ;
  0  35.3553  65.3281  85.3553  92.388  85.3553  65.3281  35.3553  1.13143E-14  -35.3553  -65.3281  -85.3553  -92.388  -85.3553  -65.3281  -35.3553  -2.26285E-14 ;
  0  27.0598  50  65.3281  70.7107  65.3281  50  27.0598  8.65956E-15  -27.0598  -50  -65.3281  -70.7107  -65.3281  -50  -27.0598  -1.73191E-14 ;
  0  14.6447  27.0598  35.3553  38.2683  35.3553  27.0598  14.6447  4.68652E-15  -14.6447  -27.0598  -35.3553  -38.2683  -35.3553  -27.0598  -14.6447  -9.37304E-15 ;
  0  4.68652E-15  8.65956E-15  1.13143E-14  1.22465E-14  1.13143E-14  8.65956E-15  4.68652E-15  1.49976E-30  -4.68652E-15  -8.65956E-15  -1.13143E-14  -1.22465E-14  -1.13143E-14  -8.65956E-15  -4.68652E-15  -2.99952E-30 ;
];

u{2} = [ ...    % states u(k,x,y)
  0  0  0  0  0  0  0  0  0  0  0  0  0  0  0  0  0 ;
  0  11.3085  16.2551  4.20385  -11.7359  4.20385  16.2551  11.3085  -3.77628E-15  -11.3085  -16.2551  -4.20385  11.7359  -4.20385  -16.2551  -11.3085  0 ;
  0  20.77  29.0495  2.70345  -31.2115  2.70345  29.0495  20.77  -7.54936E-15  -20.77  -29.0495  -2.70345  31.2115  -2.70345  -29.0495  -20.77  0 ;
  0  27.3028  39.2551  10.2027  -28.235  10.2027  39.2551  27.3028  -3.47576E-15  -27.3028  -39.2551  -10.2027  28.235  -10.2027  -39.2551  -27.3028  0 ;
  0  29.3728  41.0784  3.80355  -44.1768  3.80355  41.0784  29.3728  -1.22717E-15  -29.3728  -41.0784  -3.80355  44.1768  -3.80355  -41.0784  -29.3728  0 ;
  0  27.3028  39.2551  10.2027  -28.235  10.2027  39.2551  27.3028  -2.99303E-15  -27.3028  -39.2551  -10.2027  28.235  -10.2027  -39.2551  -27.3028  0 ;
  0  20.77  29.0495  2.70345  -31.2115  2.70345  29.0495  20.77  -6.34418E-15  -20.77  -29.0495  -2.70345  31.2115  -2.70345  -29.0495  -20.77  0 ;
  0  11.3085  16.2551  4.20385  -11.7359  4.20385  16.2551  11.3085  -3.14273E-15  -11.3085  -16.2551  -4.20385  11.7359  -4.20385  -16.2551  -11.3085  0 ;
  0  0  0  0  0  0  0  0  0  0  0  0  0  0  0  0  0 ;
];

u{3} = [ ...    % states u(k,x,y)
  0  0  0  0  0  0  0  0  0  0  0  0  0  0  0  0  0 ;
  0  8.35153  10.6968  1.67791  -7.92581  1.67791  10.6968  8.35153  -1.34367E-15  -8.35153  -10.6968  -1.67791  7.92581  -1.67791  -10.6968  -8.35153  0 ;
  0  15.3233  19.1748  0.882257  -18.421  0.882257  19.1748  15.3233  -2.52659E-15  -15.3233  -19.1748  -0.882257  18.421  -0.882257  -19.1748  -15.3233  0 ;
  0  20.1644  25.8334  4.07936  -19.0887  4.07936  25.8334  20.1644  -4.14007E-15  -20.1644  -25.8334  -4.07936  19.0887  -4.07936  -25.8334  -20.1644  0 ;
  0  21.67  27.1147  1.23682  -26.0703  1.23682  27.1147  21.67  -5.98763E-15  -21.67  -27.1147  -1.23682  26.0703  -1.23682  -27.1147  -21.67  0 ;
  0  20.1644  25.8334  4.07936  -19.0887  4.07936  25.8334  20.1644  -3.68272E-15  -20.1644  -25.8334  -4.07936  19.0887  -4.07936  -25.8334  -20.1644  0 ;
  0  15.3233  19.1748  0.882257  -18.421  0.882257  19.1748  15.3233  -1.69564E-15  -15.3233  -19.1748  -0.882257  18.421  -0.882257  -19.1748  -15.3233  0 ;
  0  8.35153  10.6968  1.67791  -7.92581  1.67791  10.6968  8.35153  -4.91993E-16  -8.35153  -10.6968  -1.67791  7.92581  -1.67791  -10.6968  -8.35153  0 ;
  0  0  0  0  0  0  0  0  0  0  0  0  0  0  0  0  0 ;
];

u{4} = [ ...    % states u(k,x,y)
  0  0  0  0  0  0  0  0  0  0  0  0  0  0  0  0  0 ;
  0  5.99312  7.07638  0.682194  -5.20099  0.682194  7.07638  5.99312  -5.10378E-16  -5.99312  -7.07638  -0.682194  5.20099  -0.682194  -7.07638  -5.99312  0 ;
  0  11.0038  12.7613  0.262909  -11.2089  0.262909  12.7613  11.0038  -9.9473E-16  -11.0038  -12.7613  -0.262909  11.2089  -0.262909  -12.7613  -11.0038  0 ;
  0  14.4703  17.0898  1.66217  -12.5338  1.66217  17.0898  14.4703  -8.27331E-16  -14.4703  -17.0898  -1.66217  12.5338  -1.66217  -17.0898  -14.4703  0 ;
  0  15.5614  18.0456  0.36603  -15.8615  0.36603  18.0456  15.5614  -1.09352E-15  -15.5614  -18.0456  -0.36603  15.8615  -0.36603  -18.0456  -15.5614  0 ;
  0  14.4703  17.0898  1.66217  -12.5338  1.66217  17.0898  14.4703  -1.26901E-15  -14.4703  -17.0898  -1.66217  12.5338  -1.66217  -17.0898  -14.4703  0 ;
  0  11.0038  12.7613  0.262909  -11.2089  0.262909  12.7613  11.0038  -1.67984E-15  -11.0038  -12.7613  -0.262909  11.2089  -0.262909  -12.7613  -11.0038  0 ;
  0  5.99312  7.07638  0.682194  -5.20099  0.682194  7.07638  5.99312  -5.10485E-16  -5.99312  -7.07638  -0.682194  5.20099  -0.682194  -7.07638  -5.99312  0 ;
  0  0  0  0  0  0  0  0  0  0  0  0  0  0  0  0  0 ;
];

u{5} = [ ...    % states u(k,x,y)
  0  0  0  0  0  0  0  0  0  0  0  0  0  0  0  0  0 ;
  0  4.22368  4.70954  0.276169  -3.41695  0.276169  4.70954  4.22368  -1.4515E-15  -4.22368  -4.70954  -0.276169  3.41695  -0.276169  -4.70954  -4.22368  0 ;
  0  7.76394  8.54004  0.0350728  -7.05592  0.0350728  8.54004  7.76394  -2.55289E-15  -7.76394  -8.54004  -0.0350728  7.05592  -0.0350728  -8.54004  -7.76394  0 ;
  0  10.198  11.3735  0.674977  -8.23769  0.674977  11.3735  10.198  -2.04057E-15  -10.198  -11.3735  -0.674977  8.23769  -0.674977  -11.3735  -10.198  0 ;
  0  10.9798  12.0766  0.0464819  -9.9838  0.0464819  12.0766  10.9798  -1.59897E-15  -10.9798  -12.0766  -0.0464819  9.9838  -0.0464819  -12.0766  -10.9798  0 ;
  0  10.198  11.3735  0.674977  -8.23769  0.674977  11.3735  10.198  -9.36127E-16  -10.198  -11.3735  -0.674977  8.23769  -0.674977  -11.3735  -10.198  0 ;
  0  7.76394  8.54004  0.0350728  -7.05592  0.0350728  8.54004  7.76394  -3.19264E-16  -7.76394  -8.54004  -0.0350728  7.05592  -0.0350728  -8.54004  -7.76394  0 ;
  0  4.22368  4.70954  0.276169  -3.41695  0.276169  4.70954  4.22368  -8.74247E-17  -4.22368  -4.70954  -0.276169  3.41695  -0.276169  -4.70954  -4.22368  0 ;
  0  0  0  0  0  0  0  0  0  0  0  0  0  0  0  0  0 ;
];

u{6} = [ ...    % states u(k,x,y)
  0  0  0  0  0  0  0  0  0  0  0  0  0  0  0  0  0 ;
  0  2.94247  3.15365  0.117196  -2.24711  0.117196  3.15365  2.94247  -1.38974E-15  -2.94247  -3.15365  -0.117196  2.24711  -0.117196  -3.15365  -2.94247  0 ;
  0  5.41479  5.74289  -0.0258185  -4.53041  -0.0258185  5.74289  5.41479  -2.34618E-15  -5.41479  -5.74289  0.0258185  4.53041  0.0258185  -5.74289  -5.41479  0 ;
  0  7.10454  7.61578  0.287511  -5.41878  0.287511  7.61578  7.10454  -1.76365E-15  -7.10454  -7.61578  -0.287511  5.41878  -0.287511  -7.61578  -7.10454  0 ;
  0  7.65763  8.12125  -0.0382332  -6.40986  -0.0382332  8.12125  7.65763  -1.39756E-15  -7.65763  -8.12125  0.0382332  6.40986  0.0382332  -8.12125  -7.65763  0 ;
  0  7.10454  7.61578  0.287511  -5.41878  0.287511  7.61578  7.10454  -8.72814E-16  -7.10454  -7.61578  -0.287511  5.41878  -0.287511  -7.61578  -7.10454  0 ;
  0  5.41479  5.74289  -0.0258185  -4.53041  -0.0258185  5.74289  5.41479  -7.3666E-16  -5.41479  -5.74289  0.0258185  4.53041  0.0258185  -5.74289  -5.41479  0 ;
  0  2.94247  3.15365  0.117196  -2.24711  0.117196  3.15365  2.94247  -2.96485E-16  -2.94247  -3.15365  -0.117196  2.24711  -0.117196  -3.15365  -2.94247  0 ;
  0  0  0  0  0  0  0  0  0  0  0  0  0  0  0  0  0 ;
];

u{7} = [ ...    % states u(k,x,y)
  0  0  0  0  0  0  0  0  0  0  0  0  0  0  0  0  0 ;
  0  2.03523  2.12526  0.0631145  -1.47043  0.0631145  2.12526  2.03523  3.42799E-17  -2.03523  -2.12526  -0.0631145  1.47043  -0.0631145  -2.12526  -2.03523  0 ;
  0  3.74857  3.88185  -0.0151549  -2.92514  -0.0151548  3.88185  3.74857  2.84977E-16  -3.74857  -3.88185  0.0151548  2.92514  0.0151549  -3.88185  -3.74857  0 ;
  0  4.91399  5.13214  0.15497  -3.54644  0.15497  5.13214  4.91399  -1.01474E-16  -4.91399  -5.13214  -0.15497  3.54644  -0.15497  -5.13214  -4.91399  0 ;
  0  5.30128  5.48955  -0.022401  -4.13842  -0.022401  5.48955  5.30128  -5.88538E-16  -5.30128  -5.48955  0.022401  4.13842  0.022401  -5.48955  -5.30128  0 ;
  0  4.91399  5.13214  0.15497  -3.54644  0.15497  5.13214  4.91399  -6.31956E-16  -4.91399  -5.13214  -0.15497  3.54644  -0.15497  -5.13214  -4.91399  0 ;
  0  3.74857  3.88185  -0.0151549  -2.92514  -0.0151548  3.88185  3.74857  -6.70886E-16  -3.74857  -3.88185  0.0151548  2.92514  0.0151549  -3.88185  -3.74857  0 ;
  0  2.03523  2.12526  0.0631145  -1.47043  0.0631145  2.12526  2.03523  -4.48647E-16  -2.03523  -2.12526  -0.0631145  1.47043  -0.0631145  -2.12526  -2.03523  0 ;
  0  0  0  0  0  0  0  0  0  0  0  0  0  0  0  0  0 ;
];

u{8} = [ ...    % states u(k,x,y)
  0  0  0  0  0  0  0  0  0  0  0  0  0  0  0  0  0 ;
  0  1.40243  1.44359  0.0561451  -0.943096  0.0561451  1.44359  1.40243  -3.90654E-16  -1.40243  -1.44359  -0.0561451  0.943096  -0.0561451  -1.44359  -1.40243  0 ;
  0  2.58478  2.64254  0.0291869  -1.86189  0.0291869  2.64254  2.58478  -7.57681E-16  -2.58478  -2.64254  -0.0291869  1.86189  -0.0291869  -2.64254  -2.58478  0 ;
  0  3.38609  3.48591  0.137048  -2.27483  0.137048  3.48591  3.38609  -7.68783E-16  -3.38609  -3.48591  -0.137048  2.27483  -0.137048  -3.48591  -3.38609  0 ;
  0  3.65544  3.737  0.0407287  -2.63406  0.0407287  3.737  3.65544  -8.40486E-16  -3.65544  -3.737  -0.0407287  2.63406  -0.0407287  -3.737  -3.65544  0 ;
  0  3.38609  3.48591  0.137048  -2.27483  0.137048  3.48591  3.38609  -4.39239E-16  -3.38609  -3.48591  -0.137048  2.27483  -0.137048  -3.48591  -3.38609  0 ;
  0  2.58478  2.64254  0.0291869  -1.86189  0.0291869  2.64254  2.58478  9.2115E-17  -2.58478  -2.64254  -0.0291869  1.86189  -0.0291869  -2.64254  -2.58478  0 ;
  0  1.40243  1.44359  0.0561451  -0.943096  0.0561451  1.44359  1.40243  2.53171E-17  -1.40243  -1.44359  -0.0561451  0.943096  -0.0561451  -1.44359  -1.40243  0 ;
  0  0  0  0  0  0  0  0  0  0  0  0  0  0  0  0  0 ;
];

u{9} = [ ...    % states u(k,x,y)
  0  0  0  0  0  0  0  0  0  0  0  0  0  0  0  0  0 ;
  0  0.968505  1.00325  0.110411  -0.510618  0.110411  1.00325  0.968505  -1.67814E-16  -0.968505  -1.00325  -0.110411  0.510618  -0.110411  -1.00325  -0.968505  0 ;
  0  1.78612  1.84131  0.169079  -0.997758  0.169079  1.84131  1.78612  -2.72914E-16  -1.78612  -1.84131  -0.169079  0.997758  -0.169079  -1.84131  -1.78612  0 ;
  0  2.33837  2.4225  0.267358  -1.23171  0.267358  2.4225  2.33837  -2.18471E-16  -2.33837  -2.4225  -0.267358  1.23171  -0.267358  -2.4225  -2.33837  0 ;
  0  2.52596  2.60397  0.238851  -1.4115  0.238851  2.60397  2.52596  -2.89562E-16  -2.52596  -2.60397  -0.238851  1.4115  -0.238851  -2.60397  -2.52596  0 ;
  0  2.33837  2.4225  0.267358  -1.23171  0.267358  2.4225  2.33837  -3.2562E-16  -2.33837  -2.4225  -0.267358  1.23171  -0.267358  -2.4225  -2.33837  0 ;
  0  1.78612  1.84131  0.169079  -0.997758  0.169079  1.84131  1.78612  -1.40087E-16  -1.78612  -1.84131  -0.169079  0.997758  -0.169079  -1.84131  -1.78612  0 ;
  0  0.968505  1.00325  0.110411  -0.510618  0.110411  1.00325  0.968505  -5.29822E-17  -0.968505  -1.00325  -0.110411  0.510618  -0.110411  -1.00325  -0.968505  0 ;
  0  0  0  0  0  0  0  0  0  0  0  0  0  0  0  0  0 ;
];



w = [ ... % binary control 
  0.111179    0.110679    0.111179    0.111624    0.110679    0.111624    0.111179    0.110679    0.111179   ; 
   0.111111    0.111115    0.111111    0.111107    0.111115    0.111107    0.111111    0.111115    0.111111   ; 
   0.111111    0.111111    0.111111    0.111111    0.111111    0.111111    0.111111    0.111111    0.111111   ; 
   0.111111    0.111111    0.111111    0.111111    0.111111    0.111111    0.111111    0.111111    0.111111   ; 
   0.111111    0.111111    0.111111    0.111111    0.111111    0.111111    0.111111    0.111111    0.111111   ; 
   0.111111    0.111111    0.111111    0.111111    0.111111    0.111111    0.111111    0.111111    0.111111   ; 
   0.111111    0.111111    0.111111    0.111111    0.111111    0.111111    0.111111    0.111111    0.111111   ; 
   0.111111    0.111111    0.111111    0.111111    0.111111    0.111111    0.111111    0.111111    0.111111   ; 
 ];

v = [ ... %  continous control 
  -52.1197    -9.26559E-15    52.1197    -73.753    -5.06801E-15    73.753    -52.1197    -8.85812E-15    52.1197   ; 
   -2.48554    1.48464E-15    2.48554    -3.52126    -3.91215E-15    3.52126    -2.48554    2.22294E-15    2.48554   ; 
   -1.44928    2.00815E-16    1.44928    -2.05258    1.76223E-15    2.05258    -1.44928    -3.13027E-16    1.44928   ; 
   -0.944946    -1.42871E-15    0.944946    -1.33808    -4.909E-16    1.33808    -0.944946    4.8187E-16    0.944946   ; 
   -0.617756    -5.8309E-16    0.617756    -0.874666    1.04043E-16    0.874666    -0.617756    -3.42618E-16    0.617756   ; 
   -0.398744    1.20994E-15    0.398744    -0.564526    7.37352E-17    0.564526    -0.398744    -2.73531E-16    0.398744   ; 
   -0.246166    -6.11278E-16    0.246166    -0.348492    -2.94161E-16    0.348492    -0.246166    3.7555E-16    0.246166   ; 
   -0.0644165    7.7786E-17    0.0644165    -0.0912147    1.25751E-16    0.0912147    -0.0644165    -1.54119E-16    0.0644165   ; 
 ];

